60 60
23 2 1
7 32 1
10 12 1
66 37 1
25 83 1
49 21 1
18 42 1
50 88 1
38 11 1
52 71 1
91 33 1
72 39 1
14 8 1
19 34 1
78 36 1
31 7 1
50 16 1
46 8 1
11 50 1
14 37 1
99 37 1
35 44 1
15 26 1
9 28 1
9 19 1
35 41 1
31 14 1
15 32 1
31 12 1
48 50 1
9 14 1
33 98 1
15 18 1
22 80 1
48 25 1
13 23 1
10 35 1
7 3 1
100 48 1
53 61 1
17 13 1
4 47 1
12 32 1
57 60 1
85 53 1
13 3 1
36 28 1
22 23 1
65 55 1
34 21 1
22 36 1
49 46 1
7 19 1
16 50 1
79 6 1
37 31 1
11 45 1
72 40 1
29 37 1
37 28 1
100 100 
100 100 
100 100 
100 100 
100 100 
100 100 
100 100 
100 100 
100 100 
100 100 
100 100 
100 100 
100 100 
100 100 
100 100 
100 100 
100 100 
100 100 
100 100 
100 100 
100 100 
100 100 
100 100 
100 100 
100 100 
100 100 
100 100 
100 100 
100 100 
100 100 
100 100 
100 100 
100 100 
100 100 
100 100 
100 100 
100 100 
100 100 
100 100 
100 100 
100 100 
100 100 
100 100 
100 100 
100 100 
100 100 
100 100 
100 100 
100 100 
100 100 
100 100 
100 100 
100 100 
100 100 
100 100 
100 100 
100 100 
100 100 
100 100 
100 100 
100 100 
